#Leave this at 1 since beta epsilon is then the morse well depth
variable run_temp equal 1

units		lj 
atom_style	atomic 
atom_modify	map array 


# read interactions
pair_style	hybrid/overlay morse 1.4 dpd/tstat 1.0 1.0 2.5 34387
read_data ${file_name}	
pair_coeff * * dpd/tstat 100 1
pair_modify	shift yes
comm_modify vel yes

minimize 	1e-10 1e-10 3000 3000

change_box all triclinic
velocity all create 1 1234

variable L equal xhi-xlo
print "Box size $L"

timestep 0.001

dump 		dumpatom  all atom 30000 shear-dump.atom.gz
dump_modify	dumpatom sort id first yes

thermo 1000
thermo_style custom step temp c_deform_temp press pxy xy pe v_rate

## Do Equilibration

fix equilibrate all nvt temp ${run_temp} ${run_temp} 1
run 3000000
unfix equilibrate

write_restart equil_3000000.restart
